# Data VRPwTW

set NODE := MoscowDepot Yaroslavl_LENTA1 Yaroslavl_7Continent Yaroslavl_ATAK Yaroslavl_ASHANn Yaroslavl_ASHANp Yaroslavl_LENTA
Yaroslavl_Giperglobus Yaroslavl_Magnit Kostroma_ASHAN Kostroma_7Continent;
set VEHICLES:= 1;

param L:= 2;
param travel_cost = 75;
param waiting_cost = 31;
param working_limit = 8;


param service_available:
			1	2	3	4	5	6	7	8	9	10	11	12	13:=
MoscowDepot		1	1	1	1	1	1	1	1	1	1	1	1	1
Yaroslavl_LENTA1	1	1	1	1	1	1	1	1	1	1	1	1	1
Yaroslavl_7Continent	1	1	1	1	1	1	1	1	1	1	1	1	1
Yaroslavl_ATAK		1	1	1	1	1	1	1	1	1	1	1	1	1
Yaroslavl_ASHANn	1	1	1	1	1	1	1	1	1	1	1	1	1
Yaroslavl_ASHANp	1	1	1	1	1	1	1	1	1	1	1	1	1
Yaroslavl_LENTA		1	1	1	1	1	1	1	1	1	1	1	1	1
Yaroslavl_Giperglobus	1	1	1	1	1	1	1	1	1	1	1	1	1
Yaroslavl_Magnit	1	1	1	1	1	1	1	1	1	1	1	1	1
Kostroma_ASHAN		1	1	1	1	1	1	1	1	1	1	1	1	1
Kostroma_7Continent	1	1	1	1	1	1	1	1	1	1	1	1	1;


param timewind:=

[MoscowDepot,*,*]:   1   2      3       4        5      6       7        8       9      10      11      12      13 :=

         1    0	 24	48	72	96	120	144	168	192	216	240	264	288
         2    24 48	72	96	120	144	168	192	216	240	264	288	312


[Yaroslavl_LENTA1,*,*]:   1   2      3       4        5      6       7        8       9      10      11      12      13 :=

         1    7	 31	55	79	103	127	151	175	199	223	247	271	295
         2    16 40	64	88	112	136	160	184	208	232	256	280	304

[Yaroslavl_7Continent,*,*]:   1   2      3       4        5      6       7        8       9      10      11      12      13 :=

         1    7	 31	55	79	103	127	151	175	199	223	247	271	295
         2    16 40	64	88	112	136	160	184	208	232	256	280	304

[Yaroslavl_ATAK,*,*]:   1   2      3       4        5      6       7        8       9      10      11      12      13 :=

         1    7	 31	55	79	103	127	151	175	199	223	247	271	295
         2    16 40	64	88	112	136	160	184	208	232	256	280	304


[Yaroslavl_ASHANn,*,*]:   1   2      3       4        5      6       7        8       9      10      11      12      13 :=

         1    7	 31	55	79	103	127	151	175	199	223	247	271	295
         2    16 40	64	88	112	136	160	184	208	232	256	280	304

[Yaroslavl_ASHANp,*,*]:   1   2      3       4        5      6       7        8       9      10      11      12      13 :=

         1    7	 31	55	79	103	127	151	175	199	223	247	271	295
         2    16 40	64	88	112	136	160	184	208	232	256	280	304


[Yaroslavl_LENTA,*,*]:   1   2      3       4        5      6       7        8       9      10      11      12      13 :=

        	1    7	 31	55	79	103	127	151	175	199	223	247	271	295
        	2    16 40	64	88	112	136	160	184	208	232	256	280	304

[Yaroslavl_Giperglobus,*,*]:   1   2      3       4        5      6       7        8       9      10      11      12      13 :=

         1    7	 31	55	79	103	127	151	175	199	223	247	271	295
         2    16 40	64	88	112	136	160	184	208	232	256	280	304

[Yaroslavl_Magnit,*,*]:   1   2      3       4        5      6       7        8       9      10      11      12      13 :=

         1    7	 31	55	79	103	127	151	175	199	223	247	271	295
         2    16 40	64	88	112	136	160	184	208	232	256	280	304


[Kostroma_ASHAN,*,*]:   1   2      3       4        5      6       7        8       9      10      11      12      13 :=

         1    7	 31	55	79	103	127	151	175	199	223	247	271	295
         2    16 40	64	88	112	136	160	184	208	232	256	280	304


[Kostroma_7Continent,*,*]:   1   2      3       4        5      6       7        8       9      10      11      12      13 :=

         1    7	 31	55	79	103	127	151	175	199	223	247	271	295
         2    16 40	64	88	112	136	160	184	208	232	256	280	304;

set CUSTTIMEWINDOWS[MoscowDepot]:=              1	2	3	4	5	6	7	8	9	10	11	12	13;
set CUSTTIMEWINDOWS[Yaroslavl_LENTA1]:=         1	2	3	4	5	6	7	8	9	10	11	12	13;
set CUSTTIMEWINDOWS[Yaroslavl_7Continent]:=     1	2	3	4	5	6	7	8	9	10	11	12	13;
set CUSTTIMEWINDOWS[Yaroslavl_ATAK]:=           1	2	3	4	5	6	7	8	9	10	11	12	13;
set CUSTTIMEWINDOWS[Yaroslavl_ASHANn]:=         1	2	3	4	5	6	7	8	9	10	11	12	13;
set CUSTTIMEWINDOWS[Yaroslavl_ASHANp]:=         1	2	3	4	5	6	7	8	9	10	11	12	13;
set CUSTTIMEWINDOWS[Yaroslavl_LENTA]:=          1	2	3	4	5	6	7	8	9	10	11	12	13;
set CUSTTIMEWINDOWS[Yaroslavl_Giperglobus]:=    1	2	3	4	5	6	7	8	9	10	11	12	13;
set CUSTTIMEWINDOWS[Yaroslavl_Magnit]:=         1	2	3	4	5	6	7	8	9	10	11	12	13;
set CUSTTIMEWINDOWS[Kostroma_ASHAN]:=           1	2	3	4	5	6	7	8	9	10	11	12	13;
set CUSTTIMEWINDOWS[Kostroma_7Continent]:=      1	2	3	4	5	6	7	8	9	10	11	12	13;

param maxduration:=
1 100;

param capacity :=
1 20000;


param travel_time:
	MoscowDepot Yaroslavl_LENTA1 Yaroslavl_7Continent Yaroslavl_ATAK Yaroslavl_ASHANn Yaroslavl_ASHANp Yaroslavl_LENTA Yaroslavl_Giperglobus Yaroslavl_Magnit Kostroma_ASHAN Kostroma_7Continent:=
MoscowDepot		.	3.63	3.32	3.5	3.33	3.55	3.63	3.73	3.5	4.34	4.22
Yaroslavl_LENTA1	3.63	.	0.27	0.33	0.29	0.07	3.63	0.2	0.33	1.31	1.2
Yaroslavl_7Continent	3.32	0.32	.	0.19	0.04	0.24	0.32	0.42	0.2	1.11	0.99
Yaroslavl_ATAK		3.5	0.35	0.19	.	0.21	0.26	0.35	0.44	0.07	1.05	0.93
Yaroslavl_ASHANn	3.33	0.34	0.04	0.21	.	0.26	0.34	0.44	0.22	1.08	0.97
Yaroslavl_ASHANp	3.55	0.08	0.22	0.28	0.24	.	0.08	0.26	0.28	1.26	1.15
Yaroslavl_LENTA		3.63	0.23	0.27	0.33	0.29	0.07	.	0.33	0.33	1.31	1.2
Yaroslavl_Giperglobus	3.73	0.32	0.41	0.47	0.43	0.26	0.32	.	0.47	1.45	1.34
Yaroslavl_Magnit	3.5	0.37	0.21	0.08	0.23	0.28	0.37	0.46	.	1.02	0.9
Kostroma_ASHAN		4.34	1.35	1.11	1.06	1.09	1.26	1.35	1.45	1.03	.	0.13
Kostroma_7Continent	4.22	1.22	0.99	0.93	0.97	1.14	1.22	1.32	0.9	0.12	.;


param:								demand	service_time 	start_available	end_available:=
MoscowDepot						0				0							1								13
Yaroslavl_LENTA1			857			0.2						1								13
Yaroslavl_7Continent	59			0.2						1								13
Yaroslavl_ATAK        32			0.2						1								13
Yaroslavl_ASHANn			197			0.2						1								13
Yaroslavl_ASHANp			112			0.2						1								13
Yaroslavl_LENTA				133			0.2						1								13
Yaroslavl_Giperglobus	1600		0.2						1								13
Yaroslavl_Magnit			2240		0.2						1								13
Kostroma_ASHAN				510			0.2						1								13
Kostroma_7Continent		78			0.2						1								13;
